CMD:
./solvers/bin/cadical --plain --no-reduce -t 1600 ./data/cnfs//arbitrated_top_n3_w8_d16_e0/arbitrated_top_n3_w8_d16_e0.22.cnf

c --- [ banner ] -------------------------------------------------------------
c 
c CaDiCaL SAT Solver
c Copyright (c) 2016-2024
c A. Biere, M. Fleury, N. Froleyks, K. Fazekas, F. Pollitt, T. Faller
c JKU Linz, University of Freiburg, TU Wien
c 
c Version 2.1.3 5296d3d2a9bf48c154ab2acb5e44625776d821bf
c g++ (Gentoo 12.3.1_p20230526 p2) 12.3.1 20230526 -Wall -Wextra -O3 -DNDEBUG
c Sat Aug 9 07:26:21 PDT 2025 Linux cedar2.int.cedar.computecanada.ca 5.14.0-362.24.2.el9_3.x86_64 x86_64
c 
c --- [ limit ] --------------------------------------------------------------
c 
c setting time limit to 1600 seconds real time (due to '-t 1600')
c 
c --- [ parsing input ] ------------------------------------------------------
c 
c reading DIMACS file from './data/cnfs//arbitrated_top_n3_w8_d16_e0/arbitrated_top_n3_w8_d16_e0.22.cnf'
c opening file to read './data/cnfs//arbitrated_top_n3_w8_d16_e0/arbitrated_top_n3_w8_d16_e0.22.cnf'
c found 'p cnf 70541 207783' header
c parsed 207783 clauses in 0.03 seconds process time
c 
c --- [ options ] ------------------------------------------------------------
c 
c   --compact=false                (different from default 'true')
c   --decompose=false              (different from default 'true')
c   --deduplicate=false            (different from default 'true')
c   --elim=false                   (different from default 'true')
c   --probe=false                  (different from default 'true')
c   --reduce=false                 (different from default 'true')
c   --subsume=false                (different from default 'true')
c   --ternary=false                (different from default 'true')
c   --transred=false               (different from default 'true')
c   --vivify=false                 (different from default 'true')
c 
c --- [ solving ] ------------------------------------------------------------
c 
c time measured in process time since initialization
c 
c  seconds  reductions  redundant  irredundant
c         MB    restarts       trail       variables
c          level   conflicts       glue         remaining
c 
c *  0.03 32  0 0   0    0    0  0% 0 169096 43818 62%
c l  0.04 33  0 0   0    0    0  0% 0 169096 43818 62%
c 1  0.04 33  0 0   0    0    0  0% 0 169096 43818 62%
c 
c --- [ result ] -------------------------------------------------------------
c 
s SATISFIABLE
v 1 2 3 4 5 6 7 8 9 10 11 12 13 14 15 16 17 18 19 20 21 22 23 24 25 26 27 28
v 29 30 31 32 33 34 35 36 37 38 39 40 41 42 43 44 45 46 47 48 49 50 51 52 53
v 54 55 56 57 58 59 60 61 62 63 64 65 66 67 68 69 70 71 72 73 74 75 76 77 78
v 79 80 81 82 83 84 85 86 87 88 89 90 91 92 93 94 95 96 97 98 99 100 101 102
v 103 104 105 106 107 108 109 110 111 112 113 114 115 116 117 118 119 120 121
v 122 123 124 125 126 127 128 129 130 131 132 133 134 135 136 137 138 139 140
v 141 142 143 144 145 146 147 148 149 150 151 152 153 154 155 156 157 158 159
v 160 161 162 163 164 165 166 167 168 169 170 171 172 173 174 175 176 177 178
v 179 180 181 182 183 184 185 186 187 188 189 190 191 192 193 194 195 196 197
v 198 199 200 201 202 203 204 205 206 207 208 209 210 211 212 213 214 215 216
v 217 218 219 220 221 222 223 224 225 226 227 228 229 230 231 232 233 234 235
v 236 237 238 239 240 241 242 243 244 245 246 247 248 249 250 251 252 253 254
v 255 256 257 258 259 260 261 262 263 264 265 266 267 268 269 270 271 272 273
v 274 275 276 277 278 279 280 281 282 283 284 285 286 287 288 289 290 291 292
v 293 294 295 296 297 298 299 300 301 302 303 304 305 306 307 308 309 310 311
v 312 313 314 315 316 317 318 319 320 321 322 323 324 325 326 327 328 329 330
v 331 332 333 334 335 336 337 338 339 340 341 342 343 344 345 346 347 348 349
v 350 351 352 353 354 355 356 357 358 359 360 361 362 363 364 365 366 367 368
v 369 370 371 372 373 374 375 376 377 378 379 380 381 382 383 384 385 386 387
v 388 389 390 391 392 393 394 395 396 397 398 399 400 401 402 403 404 405 406
v 407 408 409 410 411 412 413 414 415 416 417 418 419 420 421 422 423 424 425
v 426 427 428 429 430 431 432 433 434 435 436 437 438 439 440 441 442 443 444
v 445 446 447 448 449 450 451 452 453 454 455 456 457 458 459 460 461 462 463
v 464 465 466 467 468 469 470 471 472 473 474 475 476 477 478 479 480 481 482
v 483 484 485 486 487 488 489 490 491 492 493 494 495 496 497 498 499 500 501
v 502 503 504 505 506 507 508 509 510 511 512 513 514 515 516 517 518 519 520
v -521 -522 -523 -524 -525 526 527 528 529 530 -531 -532 -533 534 -535 -536
v -537 -538 -539 540 -541 -542 -543 -544 -545 546 -547 -548 -549 -550 -551 552
v -553 -554 -555 -556 -557 558 -559 -560 -561 -562 -563 -564 565 566 567 568
v 569 -570 -571 -572 573 -574 -575 -576 -577 -578 579 -580 -581 -582 -583 -584
v 585 -586 -587 -588 -589 -590 591 -592 -593 -594 -595 -596 597 -598 599 600
v 601 602 -603 -604 -605 -606 -607 -608 -609 -610 -611 -612 -613 -614 615 -616
v -617 618 619 -620 -621 622 623 -624 -625 626 627 -628 -629 -630 631 -632
v -633 634 -635 -636 637 -638 -639 640 -641 -642 643 -644 -645 646 -647 -648
v -649 -650 -651 -652 653 -654 -655 656 -657 -658 659 -660 -661 662 -663 -664
v 665 -666 -667 -668 -669 -670 -671 -672 673 674 -675 -676 -677 -678 -679 -680
v -681 -682 -683 -684 -685 -686 -687 -688 689 -690 -691 -692 -693 -694 -695
v 696 -697 698 -699 700 -701 702 -703 704 -705 706 -707 708 -709 710 -711 712
v -713 -714 -715 -716 717 -718 719 -720 721 -722 723 -724 725 -726 727 -728
v 729 -730 -731 732 -733 -734 -735 -736 -737 738 -739 740 -741 742 -743 744
v -745 746 -747 748 -749 750 -751 -752 753 -754 -755 -756 -757 -758 -759 -760
v 761 762 -763 764 765 -766 767 768 -769 770 771 -772 -773 -774 -775 -776 -777
v -778 -779 -780 -781 -782 -783 -784 -785 786 787 -788 -789 -790 -791 792 -793
v -794 795 -796 -797 798 -799 -800 801 -802 -803 -804 -805 -806 -807 -808 -809
v 810 -811 812 -813 814 -815 816 -817 818 -819 820 -821 822 -823 -824 825 -826
v -827 -828 -829 830 -831 832 -833 834 -835 836 -837 838 -839 840 -841 842
v -843 -844 845 -846 -847 -848 -849 -850 851 -852 853 -854 855 -856 857 -858
... skipped 6136 lines ...
v -69846 -69847 69848 -69849 69850 -69851 -69852 -69853 -69854 -69855 -69856
v -69857 -69858 -69859 -69860 -69861 -69862 -69863 -69864 -69865 -69866 -69867
v -69868 69869 -69870 -69871 69872 -69873 69874 -69875 -69876 69877 69878
v -69879 -69880 69881 -69882 -69883 -69884 -69885 -69886 -69887 -69888 -69889
v 69890 69891 -69892 69893 -69894 -69895 -69896 69897 69898 -69899 69900
v -69901 -69902 -69903 -69904 69905 -69906 69907 -69908 69909 -69910 -69911
v 69912 -69913 -69914 69915 -69916 -69917 69918 69919 -69920 69921 -69922
v -69923 -69924 -69925 -69926 -69927 -69928 -69929 -69930 -69931 -69932 -69933
v -69934 -69935 -69936 -69937 69938 -69939 69940 -69941 -69942 69943 -69944
v -69945 -69946 69947 -69948 -69949 -69950 -69951 -69952 -69953 69954 -69955
v -69956 -69957 69958 -69959 69960 -69961 -69962 -69963 69964 -69965 69966
v -69967 -69968 -69969 69970 -69971 69972 -69973 -69974 -69975 69976 69977
v 69978 -69979 -69980 -69981 -69982 -69983 69984 69985 -69986 -69987 -69988
v -69989 -69990 -69991 69992 -69993 69994 -69995 -69996 -69997 69998 69999
v -70000 70001 -70002 -70003 -70004 70005 70006 -70007 70008 70009 -70010
v -70011 70012 70013 -70014 -70015 -70016 -70017 -70018 -70019 -70020 -70021
v -70022 -70023 -70024 -70025 -70026 -70027 -70028 -70029 -70030 -70031 -70032
v -70033 -70034 -70035 -70036 -70037 -70038 -70039 -70040 -70041 -70042 -70043
v -70044 70045 -70046 70047 -70048 -70049 -70050 -70051 -70052 -70053 -70054
v -70055 -70056 -70057 -70058 -70059 -70060 -70061 -70062 -70063 -70064 70065
v -70066 70067 -70068 -70069 -70070 -70071 -70072 -70073 -70074 -70075 -70076
v -70077 -70078 -70079 -70080 -70081 -70082 -70083 -70084 -70085 70086 -70087
v 70088 -70089 70090 -70091 70092 -70093 -70094 70095 70096 -70097 -70098
v 70099 -70100 -70101 -70102 -70103 -70104 -70105 -70106 -70107 70108 70109
v -70110 70111 -70112 -70113 -70114 70115 70116 -70117 70118 -70119 -70120
v -70121 -70122 70123 -70124 70125 70126 -70127 -70128 -70129 70130 -70131
v -70132 70133 -70134 -70135 70136 -70137 70138 -70139 -70140 -70141 -70142
v -70143 -70144 -70145 -70146 -70147 -70148 -70149 -70150 -70151 -70152 -70153
v -70154 -70155 70156 -70157 70158 -70159 -70160 -70161 -70162 -70163 -70164
v -70165 -70166 -70167 -70168 -70169 -70170 -70171 -70172 -70173 -70174 -70175
v 70176 -70177 70178 -70179 -70180 -70181 -70182 -70183 -70184 -70185 -70186
v -70187 -70188 -70189 -70190 -70191 -70192 -70193 -70194 -70195 70196 -70197
v 70198 -70199 -70200 -70201 -70202 -70203 -70204 -70205 -70206 -70207 -70208
v -70209 -70210 -70211 -70212 -70213 -70214 -70215 70216 -70217 70218 -70219
v -70220 -70221 -70222 -70223 -70224 -70225 -70226 -70227 -70228 -70229 -70230
v -70231 -70232 -70233 -70234 -70235 70236 -70237 70238 -70239 -70240 -70241
v -70242 -70243 70244 -70245 -70246 -70247 -70248 -70249 -70250 -70251 -70252
v -70253 -70254 -70255 -70256 -70257 70258 -70259 -70260 -70261 -70262 -70263
v -70264 -70265 -70266 -70267 -70268 -70269 -70270 -70271 -70272 -70273 -70274
v -70275 -70276 -70277 70278 -70279 70280 -70281 -70282 -70283 -70284 -70285
v -70286 -70287 -70288 -70289 -70290 -70291 -70292 -70293 -70294 -70295 -70296
v -70297 70298 -70299 70300 -70301 -70302 -70303 -70304 -70305 -70306 -70307
v -70308 -70309 -70310 -70311 -70312 -70313 -70314 -70315 -70316 -70317 70318
v -70319 70320 -70321 70322 -70323 70324 -70325 70326 -70327 -70328 -70329
v -70330 -70331 -70332 -70333 -70334 -70335 70336 -70337 -70338 -70339 70340
v -70341 70342 -70343 -70344 -70345 70346 -70347 70348 -70349 -70350 -70351
v 70352 70353 -70354 70355 -70356 70357 -70358 -70359 70360 -70361 -70362
v -70363 70364 -70365 -70366 -70367 -70368 -70369 -70370 70371 -70372 -70373
v -70374 70375 -70376 70377 -70378 -70379 -70380 70381 -70382 70383 -70384
v -70385 -70386 70387 70388 -70389 70390 -70391 70392 -70393 -70394 -70395
v -70396 -70397 -70398 -70399 -70400 -70401 -70402 -70403 -70404 -70405 -70406
v -70407 -70408 -70409 70410 -70411 70412 -70413 -70414 -70415 -70416 70417
v -70418 -70419 -70420 -70421 -70422 -70423 -70424 -70425 -70426 -70427 -70428
v -70429 70430 -70431 70432 -70433 -70434 70435 -70436 -70437 -70438 -70439
v -70440 -70441 70442 70443 -70444 -70445 -70446 70447 -70448 70449 -70450
v -70451 70452 -70453 70454 -70455 -70456 70457 -70458 70459 -70460 -70461
v 70462 -70463 70464 70465 -70466 -70467 70468 -70469 -70470 -70471 -70472
v -70473 -70474 70475 -70476 -70477 -70478 -70479 -70480 -70481 70482 -70483
v -70484 -70485 -70486 -70487 -70488 70489 -70490 -70491 -70492 -70493 -70494
v -70495 70496 -70497 -70498 -70499 -70500 -70501 -70502 -70503 -70504 -70505
v -70506 -70507 -70508 -70509 -70510 -70511 -70512 -70513 -70514 -70515 70516
v -70517 70518 -70519 -70520 -70521 -70522 -70523 -70524 -70525 -70526 -70527
v -70528 -70529 -70530 -70531 -70532 -70533 -70534 -70535 70536 -70537 70538
v -70539 70540 -70541 0
c 
c --- [ run-time profiling ] -------------------------------------------------
c 
c process time taken by individual solving procedures
c (percentage relative to process time for solving)
c 
c         0.03  501.50% parse
c         0.01   97.75% search
c         0.01   97.73% lucky
c         0.00    0.00% simplify
c   =================================
c         0.01   15.08% solve
c 
c last line shows process time for solving
c (percentage relative to total process time)
c 
c --- [ statistics ] ---------------------------------------------------------
c 
c fixed:                     26701        37.85 %  of all variables
c lucky:                         1       100.00 %  of tried
c minimized:                     0         0.00 %  learned literals
c shrunken:                      0         0.00 %  learned literals
c minishrunken:                  0         0.00 %  learned literals
c propagations:              26701         4.36 M  per second
c 
c seconds are measured in process time for solving
c 
c --- [ resources ] ----------------------------------------------------------
c 
c total process time since initialization:         0.04    seconds
c total real time since initialization:            0.04    seconds
c maximum resident set size of process:           32.23    MB
c 
c --- [ shutting down ] ------------------------------------------------------
c 
c exit 10
